Optimize a model with 3511 rows, 1656 columns and 12235 nonzeros
Variable types: 0 continuous, 1656 integer (1656 binary)
Coefficient statistics:
  Matrix range     [1e+00, 9e+00]
  Objective range  [1e+00, 1e+00]
  Bounds range     [1e+00, 1e+00]
  RHS range        [1e+00, 1e+00]
Found heuristic solution: objective 166.0000000
Presolve removed 3511 rows and 1656 columns
Presolve time: 0.00s
Presolve: All rows and columns removed

Explored 0 nodes (0 simplex iterations) in 0.07 seconds
Thread count was 1 (of 4 available processors)

Solution count 1: 166 

Optimal solution found (tolerance 1.00e-04)
Best objective 1.660000000000e+02, best bound 1.660000000000e+02, gap 0.0000%
